Running symmetry.mzn with ins-1.dzn
8 8
4
3 3 5 0
3 5 5 3
5 3 0 5
5 5 0 0
----------
==========
%%%mzn-stat: initTime=0.000605
%%%mzn-stat: solveTime=0.000191
%%%mzn-stat: solutions=5
%%%mzn-stat: variables=18
%%%mzn-stat: propagators=15
%%%mzn-stat: propagations=217
%%%mzn-stat: nodes=24
%%%mzn-stat: failures=6
%%%mzn-stat: restarts=0
%%%mzn-stat: peakDepth=8
%%%mzn-stat-end
Finished in 108msec
Running symmetry.mzn with ins-2.dzn
9 9
5
3 3 6 0
3 4 0 0
3 5 0 4
3 6 6 3
3 9 3 0
----------
==========
%%%mzn-stat: initTime=0.000783
%%%mzn-stat: solveTime=0.000508
%%%mzn-stat: solutions=11
%%%mzn-stat: variables=22
%%%mzn-stat: propagators=16
%%%mzn-stat: propagations=915
%%%mzn-stat: nodes=119
%%%mzn-stat: failures=41
%%%mzn-stat: restarts=0
%%%mzn-stat: peakDepth=11
%%%mzn-stat-end
Finished in 121msec
Running symmetry.mzn with ins-3.dzn
10 10
6
3 3 7 0
3 4 0 0
3 6 0 4
3 7 7 3
4 4 3 6
4 6 3 0
----------
==========
%%%mzn-stat: initTime=0.000618
%%%mzn-stat: solveTime=0.000585
%%%mzn-stat: solutions=9
%%%mzn-stat: variables=26
%%%mzn-stat: propagators=19
%%%mzn-stat: propagations=1262
%%%mzn-stat: nodes=132
%%%mzn-stat: failures=49
%%%mzn-stat: restarts=0
%%%mzn-stat: peakDepth=14
%%%mzn-stat-end
Finished in 122msec
Running symmetry.mzn with ins-4.dzn
11 11
7
3 3 5 0
3 4 5 7
3 5 8 0
3 6 8 5
5 3 0 0
5 4 0 7
8 4 0 3
----------
==========
%%%mzn-stat: initTime=0.000652
%%%mzn-stat: solveTime=0.0008
%%%mzn-stat: solutions=11
%%%mzn-stat: variables=30
%%%mzn-stat: propagators=21
%%%mzn-stat: propagations=1542
%%%mzn-stat: nodes=157
%%%mzn-stat: failures=57
%%%mzn-stat: restarts=0
%%%mzn-stat: peakDepth=15
%%%mzn-stat-end
Finished in 105msec
Running symmetry.mzn with ins-5.dzn
12 12
8
3 3 0 6
3 4 6 8
3 5 9 0
3 6 0 0
3 7 9 5
3 8 6 0
3 9 3 0
6 3 0 9
----------
==========
%%%mzn-stat: initTime=0.000683
%%%mzn-stat: solveTime=0.00235
%%%mzn-stat: solutions=14
%%%mzn-stat: variables=34
%%%mzn-stat: propagators=23
%%%mzn-stat: propagations=4306
%%%mzn-stat: nodes=506
%%%mzn-stat: failures=220
%%%mzn-stat: restarts=0
%%%mzn-stat: peakDepth=24
%%%mzn-stat-end
Finished in 129msec
Running symmetry.mzn with ins-6.dzn
13 13
9
3 3 10 6
3 4 10 9
3 5 7 8
3 6 10 0
3 7 4 6
3 8 7 0
4 3 0 6
4 4 0 9
7 6 0 0
----------
==========
%%%mzn-stat: initTime=0.000821
%%%mzn-stat: solveTime=0.014884
%%%mzn-stat: solutions=17
%%%mzn-stat: variables=38
%%%mzn-stat: propagators=25
%%%mzn-stat: propagations=28788
%%%mzn-stat: nodes=3212
%%%mzn-stat: failures=1551
%%%mzn-stat: restarts=0
%%%mzn-stat: peakDepth=22
%%%mzn-stat-end
Finished in 136msec
Running symmetry.mzn with ins-7.dzn
14 14
9
3 3 11 4
3 4 11 0
3 5 5 0
3 6 8 0
3 7 11 7
3 8 8 6
3 9 5 5
5 4 0 10
5 10 0 0
----------
==========
%%%mzn-stat: initTime=0.000703
%%%mzn-stat: solveTime=0.010401
%%%mzn-stat: solutions=18
%%%mzn-stat: variables=38
%%%mzn-stat: propagators=25
%%%mzn-stat: propagations=21817
%%%mzn-stat: nodes=2535
%%%mzn-stat: failures=1209
%%%mzn-stat: restarts=0
%%%mzn-stat: peakDepth=23
%%%mzn-stat-end
Finished in 137msec
Running symmetry.mzn with ins-8.dzn
15 15
10
3 3 0 5
3 4 12 3
3 5 0 0
3 6 6 9
3 7 0 8
3 8 12 7
3 9 6 0
3 12 9 3
3 15 3 0
6 3 9 0
----------
==========
%%%mzn-stat: initTime=0.000765
%%%mzn-stat: solveTime=0.012982
%%%mzn-stat: solutions=23
%%%mzn-stat: variables=42
%%%mzn-stat: propagators=26
%%%mzn-stat: propagations=21018
%%%mzn-stat: nodes=2696
%%%mzn-stat: failures=1270
%%%mzn-stat: restarts=0
%%%mzn-stat: peakDepth=22
%%%mzn-stat-end
Finished in 119msec
Running symmetry.mzn with ins-9.dzn
16 16
10
3 3 0 0
3 4 13 12
3 5 0 11
3 6 10 10
3 7 7 9
3 8 0 3
3 10 10 0
3 12 13 0
4 7 3 9
7 9 3 0
----------
==========
%%%mzn-stat: initTime=0.000719
%%%mzn-stat: solveTime=0.00768
%%%mzn-stat: solutions=19
%%%mzn-stat: variables=42
%%%mzn-stat: propagators=27
%%%mzn-stat: propagations=13648
%%%mzn-stat: nodes=1457
%%%mzn-stat: failures=658
%%%mzn-stat: restarts=0
%%%mzn-stat: peakDepth=23
%%%mzn-stat-end
Finished in 116msec
Running symmetry.mzn with ins-10.dzn
17 17
12
3 3 14 0
3 4 11 0
3 5 4 12
3 6 14 11
3 7 11 4
3 8 14 3
3 9 4 3
4 3 0 14
4 8 7 3
4 14 0 0
7 3 4 0
7 6 7 11
----------
==========
%%%mzn-stat: initTime=0.000841
%%%mzn-stat: solveTime=0.02911
%%%mzn-stat: solutions=24
%%%mzn-stat: variables=50
%%%mzn-stat: propagators=31
%%%mzn-stat: propagations=43053
%%%mzn-stat: nodes=4712
%%%mzn-stat: failures=2258
%%%mzn-stat: restarts=0
%%%mzn-stat: peakDepth=27
%%%mzn-stat-end
Finished in 152msec
Running symmetry.mzn with ins-11.dzn
18 19
16
3 3 3 4
3 4 12 11
3 5 11 0
3 6 3 7
3 7 9 8
3 8 15 11
3 10 6 6
3 11 0 1
4 3 9 5
4 4 3 0
4 5 7 0
4 6 14 0
5 3 5 16
5 4 10 15
5 5 13 6
5 6 0 13
----------
%%%mzn-stat: initTime=0.000879
%%%mzn-stat: solveTime=299.878
%%%mzn-stat: solutions=29
%%%mzn-stat: variables=66
%%%mzn-stat: propagators=39
%%%mzn-stat: propagations=365755769
%%%mzn-stat: nodes=47359392
%%%mzn-stat: failures=23679504
%%%mzn-stat: restarts=0
%%%mzn-stat: peakDepth=54
%%%mzn-stat-end
Finished in 5m 0s
Running symmetry.mzn with ins-12.dzn
19 19
14
3 3 3 0
3 4 9 7
3 5 3 14
3 6 6 0
3 7 9 0
3 8 9 11
3 9 12 0
3 10 12 9
3 11 3 3
3 13 6 6
3 19 0 0
4 5 15 0
4 6 15 5
4 8 15 11
----------
==========
%%%mzn-stat: initTime=0.000883
%%%mzn-stat: solveTime=3.45926
%%%mzn-stat: solutions=29
%%%mzn-stat: variables=58
%%%mzn-stat: propagators=34
%%%mzn-stat: propagations=5090498
%%%mzn-stat: nodes=687231
%%%mzn-stat: failures=343458
%%%mzn-stat: restarts=0
%%%mzn-stat: peakDepth=37
%%%mzn-stat-end
Finished in 3s 587msec
Running symmetry.mzn with ins-13.dzn
20 20
14
3 3 17 17
3 4 14 16
3 5 11 7
3 6 14 0
3 7 11 0
3 8 11 12
3 9 0 11
3 10 14 6
3 11 0 0
3 17 17 0
4 3 7 17
4 9 3 0
4 11 3 9
4 17 7 0
----------
==========
%%%mzn-stat: initTime=0.000897
%%%mzn-stat: solveTime=0.484719
%%%mzn-stat: solutions=34
%%%mzn-stat: variables=58
%%%mzn-stat: propagators=35
%%%mzn-stat: propagations=740801
%%%mzn-stat: nodes=97745
%%%mzn-stat: failures=48689
%%%mzn-stat: restarts=0
%%%mzn-stat: peakDepth=45
%%%mzn-stat-end
Finished in 607msec
Running symmetry.mzn with ins-14.dzn
21 21
15
3 3 3 18
3 4 0 17
3 5 18 0
3 6 18 15
3 7 15 0
3 8 0 0
3 9 0 8
3 10 18 5
3 14 15 7
3 18 3 0
4 4 11 0
4 6 11 4
4 11 11 10
5 6 6 15
5 15 6 0
----------
==========
%%%mzn-stat: initTime=0.000856
%%%mzn-stat: solveTime=60.5604
%%%mzn-stat: solutions=31
%%%mzn-stat: variables=62
%%%mzn-stat: propagators=37
%%%mzn-stat: propagations=90217890
%%%mzn-stat: nodes=11107299
%%%mzn-stat: failures=5553481
%%%mzn-stat: restarts=0
%%%mzn-stat: peakDepth=45
%%%mzn-stat-end
Finished in 1m 0s
Running symmetry.mzn with ins-15.dzn
22 22
16
3 3 0 19
3 4 7 13
3 5 7 17
3 6 4 0
3 7 10 4
3 8 16 0
3 9 7 4
3 10 19 12
3 11 10 11
3 12 19 0
3 13 4 6
3 14 16 8
3 22 13 0
4 3 3 19
4 19 0 0
6 4 7 0
----------
==========
%%%mzn-stat: initTime=0.000964
%%%mzn-stat: solveTime=43.4065
%%%mzn-stat: solutions=31
%%%mzn-stat: variables=66
%%%mzn-stat: propagators=39
%%%mzn-stat: propagations=53520390
%%%mzn-stat: nodes=6631331
%%%mzn-stat: failures=3315461
%%%mzn-stat: restarts=0
%%%mzn-stat: peakDepth=57
%%%mzn-stat-end
Finished in 43s 522msec
Running symmetry.mzn with ins-16.dzn
23 24
19
3 3 12 9
3 4 9 16
3 5 3 19
3 6 16 11
3 7 16 17
3 8 3 0
3 9 12 0
3 10 0 1
3 11 3 8
3 12 0 11
3 14 9 2
3 20 6 0
4 3 12 12
4 4 6 20
4 6 12 15
4 10 19 14
4 11 15 0
4 12 19 2
6 3 10 21
----------
%%%mzn-stat: initTime=0.001126
%%%mzn-stat: solveTime=299.88
%%%mzn-stat: solutions=37
%%%mzn-stat: variables=78
%%%mzn-stat: propagators=45
%%%mzn-stat: propagations=316921088
%%%mzn-stat: nodes=41475605
%%%mzn-stat: failures=20737513
%%%mzn-stat: restarts=0
%%%mzn-stat: peakDepth=59
%%%mzn-stat-end
Finished in 5m 0s
Running symmetry.mzn with ins-17.dzn
24 25
18
3 3 21 18
3 4 21 21
3 5 5 0
3 6 0 19
3 7 3 18
3 8 12 0
3 9 15 16
3 10 8 7
3 12 5 5
3 14 15 2
3 18 21 0
3 24 18 1
4 3 8 4
4 4 8 0
4 5 11 20
4 12 11 8
5 8 6 17
5 16 0 2
----------
%%%mzn-stat: initTime=0.001141
%%%mzn-stat: solveTime=299.877
%%%mzn-stat: solutions=45
%%%mzn-stat: variables=74
%%%mzn-stat: propagators=43
%%%mzn-stat: propagations=420384361
%%%mzn-stat: nodes=49791110
%%%mzn-stat: failures=24895211
%%%mzn-stat: restarts=0
%%%mzn-stat: peakDepth=54
%%%mzn-stat-end
Finished in 5m 0s
Running symmetry.mzn with ins-18.dzn
25 26
19
3 3 22 9
3 4 19 3
3 5 7 21
3 6 10 20
3 7 13 19
3 8 6 0
3 9 22 0
3 10 16 3
3 11 16 14
3 13 6 8
3 14 22 12
3 17 13 2
3 18 19 7
3 19 3 2
3 25 0 0
4 5 3 21
4 7 9 0
4 13 9 7
6 3 16 0
----------
%%%mzn-stat: initTime=0.001297
%%%mzn-stat: solveTime=299.871
%%%mzn-stat: solutions=40
%%%mzn-stat: variables=78
%%%mzn-stat: propagators=44
%%%mzn-stat: propagations=355196948
%%%mzn-stat: nodes=42713914
%%%mzn-stat: failures=21356630
%%%mzn-stat: restarts=0
%%%mzn-stat: peakDepth=62
%%%mzn-stat-end
Finished in 4m 59s
Running symmetry.mzn with ins-19.dzn
26 27
22
3 3 14 1
3 4 10 22
3 5 7 22
3 6 17 21
3 7 17 0
3 8 4 0
3 9 0 18
3 10 23 0
3 11 20 0
3 12 0 6
3 14 17 7
3 15 20 11
3 16 14 4
3 17 23 10
3 19 11 1
4 3 7 4
4 4 7 0
4 5 0 0
4 7 13 20
4 8 3 8
4 11 3 16
4 14 7 7
----------
%%%mzn-stat: initTime=0.001026
%%%mzn-stat: solveTime=299.879
%%%mzn-stat: solutions=50
%%%mzn-stat: variables=90
%%%mzn-stat: propagators=51
%%%mzn-stat: propagations=263175625
%%%mzn-stat: nodes=37228348
%%%mzn-stat: failures=18613669
%%%mzn-stat: restarts=0
%%%mzn-stat: peakDepth=67
%%%mzn-stat-end
Finished in 4m 59s
Running symmetry.mzn with ins-20.dzn
27 43
21
3 3 24 35
3 4 11 36
3 5 0 15
3 6 13 30
3 7 21 3
3 8 24 2
3 9 24 16
3 10 1 1
3 11 18 0
3 12 6 29
3 19 2 23
3 20 15 4
3 21 8 7
4 3 23 38
4 4 6 3
4 6 14 37
4 7 20 13
4 8 23 26
4 14 4 8
4 19 19 23
4 20 11 1
----------
%%%mzn-stat: initTime=0.001013
%%%mzn-stat: solveTime=299.877
%%%mzn-stat: solutions=36
%%%mzn-stat: variables=86
%%%mzn-stat: propagators=49
%%%mzn-stat: propagations=344333500
%%%mzn-stat: nodes=31156189
%%%mzn-stat: failures=15577692
%%%mzn-stat: restarts=0
%%%mzn-stat: peakDepth=61
%%%mzn-stat-end
Finished in 5m 0s
